unknown
(model
; cardinality of BoundSet is 1
(declare-sort BoundSet 0)
; rep: @uc_BoundSet_0
; cardinality of UnboundSet is 1
(declare-sort UnboundSet 0)
(declare-fun groundTerm_2 () UnboundSet)
(define-fun IsStanding ((BOUND_VARIABLE_342 BoundSet)) Bool true)
(define-fun IsAtPodium ((BOUND_VARIABLE_342 BoundSet)) Bool false)
)
sat
(model
; cardinality of BoundSet is 1
(declare-sort BoundSet 0)
; rep: @uc_BoundSet_0
; cardinality of UnboundSet is 1
(declare-sort UnboundSet 0)
(declare-fun groundTerm_4 () UnboundSet)
(define-fun IsStanding ((BOUND_VARIABLE_363 BoundSet)) Bool true)
(define-fun IsAtPodium ((BOUND_VARIABLE_363 BoundSet)) Bool false)
)
